
        $ From http://www.csplib.org/Problems/prob009/data/helmut.pdf
        $ Problem number 30
        $ Sequence length : 24
        language ESSENCE' 1.0
        letting sizemaster be 247
        letting sizes be sequence(3,5,6,9,12,14,19,23,24,25,28,32,34,36,40,45,46,48,56,62,63,66,111,136)
        